problems/csplib-prob056/sonet-models/noch/O0/minion/model_2_1-s2ring06-solution000001.solution
language Essence 1.3

letting network be mset({1, 2, 3, 4, 5}, {1, 2, 3, 4, 6}, {1, 2, 3, 4, 7}, {1, 2, 8, 9, 10}, {3, 5, 6, 10}, {7, 8})
$ Visualisation for network
$  1  2  3  4  5
$  1  2  3  4  6
$  1  2  3  4  7
$  1  2  8  9 10
$  3  5  6 10
$  7  8

