problems/csplib-prob056/sonet-models/noch/O2/lingeling/model_2_1-s2ring06-solution000001.eprime-solution
language ESSENCE' 1.0

letting network_ExplicitWithFlagsR6_Flags be [3, 1, 2, 0, 0, 0; int(1..6)]
letting network_ExplicitWithFlagsR6_Values_ExplicitVarSizeWithDummy be
        [[1, 5, 6, 9, 10; int(1..5)], [2, 3, 5, 10, 11; int(1..5)], [2, 4, 7, 8, 9; int(1..5)],
         [1, 1, 1, 1, 1; int(1..5)], [1, 1, 1, 1, 1; int(1..5)], [1, 1, 1, 1, 1; int(1..5)]; int(1..6)]
